W=7;
H=4;

MAX_TIME=W*H;
MAX_TRACKS=14;

TARGET=(4,7);

N_TRAINS=2;
TRAINS=[(3,2,LEFT),(3,4,RIGHT)];

N_INIT_POS=6;
INIT_POS=[
(1,2,STRAIGHT_RL),
(3,2,STRAIGHT_RL),
(3,4,STRAIGHT_RL),
(4,6,STRAIGHT_RL),
(4,7,STRAIGHT_RL),
(2,2,EMPTY),
];
N_TUNNELS=0;
TUNNEL_PAIRS=[];

N_GATES=0;
GATES=[];
N_ACTIVATIONS=0;
ACTIVATIONS=[];

N_DSWITCHES=0;
DSWITCHES=[];
N_STATIONS=1;
STATIONS=[
  (1,2,1),
];
